c This file is generated by v2cnfMtr
c Generated on Mon Nov  9 17:03:56 2015
p cnf 115 280
-1 -3 -17 0
1 17 0
3 17 0
-3 -4 -14 0
3 14 0
4 14 0
-2 -33 -16 0
2 16 0
33 16 0
-5 -33 -15 0
5 15 0
33 15 0
-20 -16 -12 0
20 12 0
16 12 0
-15 -15 -13 0
15 13 0
15 13 0
6 18 0
-6 -18 0
7 19 0
-7 -19 0
-1 -18 21 0
1 -21 0
18 -21 0
-17 -6 22 0
17 -22 0
6 -22 0
-4 -18 23 0
4 -23 0
18 -23 0
-17 -6 24 0
17 -24 0
6 -24 0
-21 -19 25 0
21 -25 0
19 -25 0
-22 -7 26 0
22 -26 0
7 -26 0
-23 -19 27 0
23 -27 0
19 -27 0
-24 -7 28 0
24 -28 0
7 -28 0
25 26 -29 0
-25 29 0
-26 29 0
27 29 -30 0
-27 30 0
-29 30 0
30 28 -20 0
-30 20 0
-28 20 0
8 31 0
-8 -31 0
9 32 0
-9 -32 0
-1 -31 34 0
1 -34 0
31 -34 0
-14 -8 35 0
14 -35 0
8 -35 0
-4 -31 36 0
4 -36 0
31 -36 0
-14 -8 37 0
14 -37 0
8 -37 0
-34 -32 38 0
34 -38 0
32 -38 0
-35 -9 39 0
35 -39 0
9 -39 0
-36 -32 40 0
36 -40 0
32 -40 0
-37 -9 41 0
37 -41 0
9 -41 0
38 39 -42 0
-38 42 0
-39 42 0
40 42 -43 0
-40 43 0
-42 43 0
43 41 -33 0
-43 33 0
-41 33 0
10 44 0
-10 -44 0
11 45 0
-11 -45 0
-1 -44 47 0
1 -47 0
44 -47 0
-14 -10 48 0
14 -48 0
10 -48 0
-4 -44 49 0
4 -49 0
44 -49 0
-14 -10 50 0
14 -50 0
10 -50 0
-47 -45 51 0
47 -51 0
45 -51 0
-48 -11 52 0
48 -52 0
11 -52 0
-49 -45 53 0
49 -53 0
45 -53 0
-50 -11 54 0
50 -54 0
11 -54 0
51 52 -55 0
-51 55 0
-52 55 0
53 55 -56 0
-53 56 0
-55 56 0
56 54 -46 0
-56 46 0
-54 46 0
c The second circuit:
-57 -59 -73 0
57 73 0
59 73 0
-59 -60 -70 0
59 70 0
60 70 0
-58 -89 -72 0
58 72 0
89 72 0
-61 -89 -71 0
61 71 0
89 71 0
-76 -72 -68 0
76 68 0
72 68 0
-71 -71 -69 0
71 69 0
71 69 0
62 74 0
-62 -74 0
63 75 0
-63 -75 0
-57 -74 77 0
57 -77 0
74 -77 0
-73 -62 78 0
73 -78 0
62 -78 0
-60 -74 79 0
60 -79 0
74 -79 0
-73 -62 80 0
73 -80 0
62 -80 0
-77 -75 81 0
77 -81 0
75 -81 0
-78 -63 82 0
78 -82 0
63 -82 0
-79 -75 83 0
79 -83 0
75 -83 0
-80 -63 84 0
80 -84 0
63 -84 0
81 82 -85 0
-81 85 0
-82 85 0
83 85 -86 0
-83 86 0
-85 86 0
86 84 -76 0
-86 76 0
-84 76 0
64 87 0
-64 -87 0
65 88 0
-65 -88 0
-57 -87 90 0
57 -90 0
87 -90 0
-70 -64 91 0
70 -91 0
64 -91 0
-60 -87 92 0
60 -92 0
87 -92 0
-70 -64 93 0
70 -93 0
64 -93 0
-90 -88 94 0
90 -94 0
88 -94 0
-91 -65 95 0
91 -95 0
65 -95 0
-92 -88 96 0
92 -96 0
88 -96 0
-93 -65 97 0
93 -97 0
65 -97 0
94 95 -98 0
-94 98 0
-95 98 0
96 98 -99 0
-96 99 0
-98 99 0
99 97 -89 0
-99 89 0
-97 89 0
66 100 0
-66 -100 0
67 101 0
-67 -101 0
-57 -100 103 0
57 -103 0
100 -103 0
-70 -66 104 0
70 -104 0
66 -104 0
-60 -100 105 0
60 -105 0
100 -105 0
-70 -66 106 0
70 -106 0
66 -106 0
-103 -101 107 0
103 -107 0
101 -107 0
-104 -67 108 0
104 -108 0
67 -108 0
-105 -101 109 0
105 -109 0
101 -109 0
-106 -67 110 0
106 -110 0
67 -110 0
107 108 -111 0
-107 111 0
-108 111 0
109 111 -112 0
-109 112 0
-111 112 0
112 110 -102 0
-112 102 0
-110 102 0
c Force PIs of 2 ckts to be the same:
1 -57 0
-1 57 0
2 -58 0
-2 58 0
3 -59 0
-3 59 0
4 -60 0
-4 60 0
5 -61 0
-5 61 0
c XOR outputs of 2 ckts:
-12 -68 -113 0
12 68 -113 0
12 -68 113 0
-12 68 113 0
-13 -69 -114 0
13 69 -114 0
13 -69 114 0
-13 69 114 0
c The last OR gate of the miter:
113 114 -115 0
-113 115 0
-114 115 0
115 0
